unknown
(model
; cardinality of BoundSet is 3
(declare-sort BoundSet 0)
; rep: @uc_BoundSet_0
; rep: @uc_BoundSet_1
; rep: @uc_BoundSet_2
; cardinality of UnboundSet is 1
(declare-sort UnboundSet 0)
(declare-fun groundTerm_4 () UnboundSet)
(define-fun IsBlack ((BOUND_VARIABLE_420 BoundSet)) Bool true)
(define-fun IsSwimming ((BOUND_VARIABLE_420 BoundSet)) Bool true)
(define-fun IsInHisMouth ((BOUND_VARIABLE_420 BoundSet)) Bool true)
(define-fun IsAsleep ((BOUND_VARIABLE_420 BoundSet)) Bool false)
(define-fun IsInGrass ((BOUND_VARIABLE_420 BoundSet)) Bool false)
)
sat
(model
; cardinality of BoundSet is 1
(declare-sort BoundSet 0)
; rep: @uc_BoundSet_0
; cardinality of UnboundSet is 1
(declare-sort UnboundSet 0)
(declare-fun groundTerm_6 () UnboundSet)
(define-fun IsBlack ((BOUND_VARIABLE_455 BoundSet)) Bool true)
(define-fun IsSwimming ((BOUND_VARIABLE_455 BoundSet)) Bool true)
(define-fun IsInHisMouth ((BOUND_VARIABLE_455 BoundSet)) Bool true)
(define-fun IsAsleep ((BOUND_VARIABLE_455 BoundSet)) Bool false)
(define-fun IsInGrass ((BOUND_VARIABLE_455 BoundSet)) Bool false)
)
